c File: instances/20_0.30_3.col
c
c Description: Random graph of size 20 vertices and P(0.3) of edges between any two vertices.
p col 20 190
e 1 5
e 1 9
e 1 18
e 2 7
e 2 9
e 2 10
e 2 13
e 2 18
e 3 6
e 3 12
e 3 14
e 3 18
e 3 20
e 4 8
e 4 9
e 4 13
e 5 6
e 5 9
e 5 10
e 5 11
e 5 14
e 5 17
e 5 20
e 6 13
e 6 17
e 6 19
e 6 20
e 7 9
e 7 11
e 7 14
e 7 18
e 7 19
e 7 20
e 8 9
e 8 12
e 8 13
e 8 15
e 8 16
e 8 17
e 9 10
e 9 12
e 9 15
e 9 16
e 9 18
e 9 19
e 10 11
e 11 14
e 11 17
e 12 13
e 12 18
e 14 16
e 14 17
e 14 18
e 16 18
e 17 19
e 17 20